p cnf 18 29
-1 -2 3 0
-1 -4 -2 0
-1 -4 -5 0
-1 -4 -6 0
-3 -7 1 0
-8 -6 0
-8 -9 0
-9 -5 0
-3 7 10 11 12 13 0
-4 6 14 0
-4 0
-3 13 0
-1 14 0
-14 1 0
-4 5 8 9 0
-5 -8 0
-7 -7 15 0
-9 0
-3 7 0
-1 3 0
-7 3 0
-9 4 0
4 3 0
-4 -3 0
-9 16 -9 0
-1 17 -1 0
-1 18 -1 0
-14 17 -14 0
-14 18 -14 0
